p cnf 32 404
-1 -9 0
-1 -10 0
-1 -11 0
-1 -12 0
-2 -9 0
-2 -10 0
-2 -11 0
-2 -12 0
-3 -9 0
-3 -10 0
-3 -11 0
-3 -12 0
-4 -9 0
-4 -10 0
-4 -11 0
-4 -12 0
-1 -17 0
-1 -18 0
-1 -19 0
-1 -20 0
-2 -17 0
-2 -18 0
-2 -19 0
-2 -20 0
-3 -17 0
-3 -18 0
-3 -19 0
-3 -20 0
-4 -17 0
-4 -18 0
-4 -19 0
-4 -20 0
-1 -25 0
-1 -26 0
-1 -27 0
-1 -28 0
-2 -25 0
-2 -26 0
-2 -27 0
-2 -28 0
-3 -25 0
-3 -26 0
-3 -27 0
-3 -28 0
-4 -25 0
-4 -26 0
-4 -27 0
-4 -28 0
-1 -33 0
-1 -34 0
-1 -35 0
-1 -36 0
-2 -33 0
-2 -34 0
-2 -35 0
-2 -36 0
-3 -33 0
-3 -34 0
-3 -35 0
-3 -36 0
-4 -33 0
-4 -34 0
-4 -35 0
-4 -36 0
-1 -41 0
-1 -42 0
-1 -43 0
-1 -44 0
-2 -41 0
-2 -42 0
-2 -43 0
-2 -44 0
-3 -41 0
-3 -42 0
-3 -43 0
-3 -44 0
-4 -41 0
-4 -42 0
-4 -43 0
-4 -44 0
-1 -49 0
-1 -50 0
-1 -51 0
-1 -52 0
-2 -49 0
-2 -50 0
-2 -51 0
-2 -52 0
-3 -49 0
-3 -50 0
-3 -51 0
-3 -52 0
-4 -49 0
-4 -50 0
-4 -51 0
-4 -52 0
-1 -57 0
-1 -58 0
-1 -59 0
-1 -60 0
-2 -57 0
-2 -58 0
-2 -59 0
-2 -60 0
-3 -57 0
-3 -58 0
-3 -59 0
-3 -60 0
-4 -57 0
-4 -58 0
-4 -59 0
-4 -60 0
-9 -17 0
-9 -18 0
-9 -19 0
-9 -20 0
-10 -17 0
-10 -18 0
-10 -19 0
-10 -20 0
-11 -17 0
-11 -18 0
-11 -19 0
-11 -20 0
-12 -17 0
-12 -18 0
-12 -19 0
-12 -20 0
-17 -25 0
-17 -26 0
-17 -27 0
-17 -28 0
-18 -25 0
-18 -26 0
-18 -27 0
-18 -28 0
-19 -25 0
-19 -26 0
-19 -27 0
-19 -28 0
-20 -25 0
-20 -26 0
-20 -27 0
-20 -28 0
-17 -49 0
-17 -50 0
-17 -51 0
-17 -52 0
-18 -49 0
-18 -50 0
-18 -51 0
-18 -52 0
-19 -49 0
-19 -50 0
-19 -51 0
-19 -52 0
-20 -49 0
-20 -50 0
-20 -51 0
-20 -52 0
-17 -57 0
-17 -58 0
-17 -59 0
-17 -60 0
-18 -57 0
-18 -58 0
-18 -59 0
-18 -60 0
-19 -57 0
-19 -58 0
-19 -59 0
-19 -60 0
-20 -57 0
-20 -58 0
-20 -59 0
-20 -60 0
-25 -49 0
-25 -50 0
-25 -51 0
-25 -52 0
-26 -49 0
-26 -50 0
-26 -51 0
-26 -52 0
-27 -49 0
-27 -50 0
-27 -51 0
-27 -52 0
-28 -49 0
-28 -50 0
-28 -51 0
-28 -52 0
-33 -41 0
-33 -42 0
-33 -43 0
-33 -44 0
-34 -41 0
-34 -42 0
-34 -43 0
-34 -44 0
-35 -41 0
-35 -42 0
-35 -43 0
-35 -44 0
-36 -41 0
-36 -42 0
-36 -43 0
-36 -44 0
-33 -49 0
-33 -50 0
-33 -51 0
-33 -52 0
-34 -49 0
-34 -50 0
-34 -51 0
-34 -52 0
-35 -49 0
-35 -50 0
-35 -51 0
-35 -52 0
-36 -49 0
-36 -50 0
-36 -51 0
-36 -52 0
-33 -57 0
-33 -58 0
-33 -59 0
-33 -60 0
-34 -57 0
-34 -58 0
-34 -59 0
-34 -60 0
-35 -57 0
-35 -58 0
-35 -59 0
-35 -60 0
-36 -57 0
-36 -58 0
-36 -59 0
-36 -60 0
-1 -9 0
-1 -17 0
-1 -25 0
-1 -33 0
-1 -41 0
-1 -49 0
-1 -57 0
-9 -17 0
-9 -25 0
-9 -33 0
-9 -41 0
-9 -49 0
-9 -57 0
-17 -25 0
-17 -33 0
-17 -41 0
-17 -49 0
-17 -57 0
-25 -33 0
-25 -41 0
-25 -49 0
-25 -57 0
-33 -41 0
-33 -49 0
-33 -57 0
-41 -49 0
-41 -57 0
-49 -57 0
1 9 17 25 33 41 49 57 0
-2 -10 0
-2 -18 0
-2 -26 0
-2 -34 0
-2 -42 0
-2 -50 0
-2 -58 0
-10 -18 0
-10 -26 0
-10 -34 0
-10 -42 0
-10 -50 0
-10 -58 0
-18 -26 0
-18 -34 0
-18 -42 0
-18 -50 0
-18 -58 0
-26 -34 0
-26 -42 0
-26 -50 0
-26 -58 0
-34 -42 0
-34 -50 0
-34 -58 0
-42 -50 0
-42 -58 0
-50 -58 0
2 10 18 26 34 42 50 58 0
-3 -11 0
-3 -19 0
-3 -27 0
-3 -35 0
-3 -43 0
-3 -51 0
-3 -59 0
-11 -19 0
-11 -27 0
-11 -35 0
-11 -43 0
-11 -51 0
-11 -59 0
-19 -27 0
-19 -35 0
-19 -43 0
-19 -51 0
-19 -59 0
-27 -35 0
-27 -43 0
-27 -51 0
-27 -59 0
-35 -43 0
-35 -51 0
-35 -59 0
-43 -51 0
-43 -59 0
-51 -59 0
3 11 19 27 35 43 51 59 0
-4 -12 0
-4 -20 0
-4 -28 0
-4 -36 0
-4 -44 0
-4 -52 0
-4 -60 0
-12 -20 0
-12 -28 0
-12 -36 0
-12 -44 0
-12 -52 0
-12 -60 0
-20 -28 0
-20 -36 0
-20 -44 0
-20 -52 0
-20 -60 0
-28 -36 0
-28 -44 0
-28 -52 0
-28 -60 0
-36 -44 0
-36 -52 0
-36 -60 0
-44 -52 0
-44 -60 0
-52 -60 0
4 12 20 28 36 44 52 60 0
-1 -2 0
-1 -3 0
-1 -4 0
-2 -3 0
-2 -4 0
-3 -4 0
-9 -10 0
-9 -11 0
-9 -12 0
-10 -11 0
-10 -12 0
-11 -12 0
-17 -18 0
-17 -19 0
-17 -20 0
-18 -19 0
-18 -20 0
-19 -20 0
-25 -26 0
-25 -27 0
-25 -28 0
-26 -27 0
-26 -28 0
-27 -28 0
-33 -34 0
-33 -35 0
-33 -36 0
-34 -35 0
-34 -36 0
-35 -36 0
-41 -42 0
-41 -43 0
-41 -44 0
-42 -43 0
-42 -44 0
-43 -44 0
-49 -50 0
-49 -51 0
-49 -52 0
-50 -51 0
-50 -52 0
-51 -52 0
-57 -58 0
-57 -59 0
-57 -60 0
-58 -59 0
-58 -60 0
-59 -60 0
